c SAT problem
p wcnf 215 1304
1 -60 3150 0
1 60 -3120 0
1 -60 -3165 0
1 -75 3150 0
1 -75 -3120 0
1 -75 -60 0
1 -75 -3135 0
1 -90 -3105 0
1 -90 105 0
1 -90 3150 0
1 105 3105 0
1 -105 3120 0
1 -105 90 0
1 105 -3165 0
1 -105 -3135 0
1 3120 165 0
1 -3120 135 0
1 3120 -105 0
1 3120 3121 0
1 -3120 181 0
1 -3120 -120 0
1 3120 90 0
1 3120 60 0
1 -3135 -165 0
1 3135 -135 0
1 3135 -75 0
1 -3135 -3120 0
1 3150 -196 0
1 3150 -166 0
1 3150 -105 0
1 3150 3151 0
1 -3150 -90 0
1 3150 60 0
1 -3150 -3165 0
1 3165 166 0
1 -3165 136 0
1 -3165 -181 0
1 3165 -151 0
1 -3165 60 0
1 -3165 3166 0
1 120 3105 0
1 120 3060 0
1 120 3135 0
1 -135 3105 0
1 -135 3120 0
1 135 120 0
1 -135 -3135 0
1 -150 -165 0
1 -150 -3045 0
1 -150 3120 0
1 150 3090 0
1 150 3030 0
1 -150 -3135 0
1 -165 -3090 0
1 165 3030 0
1 -3060 -225 0
1 3060 195 0
1 3060 -3075 0
1 3060 105 0
1 -3060 210 0
1 3060 180 0
1 3060 3061 0
1 3060 150 0
1 3060 -90 0
1 -3075 240 0
1 3075 -3060 0
1 3075 150 0
1 -3075 255 0
1 -3090 -196 0
1 3090 -165 0
1 3090 135 0
1 -3090 240 0
1 -3090 181 0
1 -3090 -120 0
1 3090 -90 0
1 3105 135 0
1 3105 -120 0
1 -3105 -255 0
1 -180 3060 0
1 -180 -3030 0
1 180 3000 0
1 -195 -196 0
1 195 -3045 0
1 195 180 0
1 210 3075 0
1 210 -3045 0
1 -210 3015 0
1 210 -211 0
1 -210 3030 0
1 -210 3000 0
1 225 3060 0
1 -225 -3030 0
1 -225 -3000 0
1 -3000 165 0
1 -3000 3015 0
1 -3000 210 0
1 3000 -315 0
1 -3015 -300 0
1 -3015 180 0
1 -3015 150 0
1 3015 -3000 0
1 -3015 315 0
1 3030 -195 0
1 -3030 165 0
1 -3030 -3045 0
1 -3030 -270 0
1 -3030 240 0
1 -3030 -210 0
1 -3030 -3031 0
1 -3030 -315 0
1 -3045 195 0
1 -3045 -165 0
1 -3045 -3046 0
1 -3045 -270 0
1 3045 -240 0
1 3045 -210 0
1 -3045 -180 0
1 -3045 -150 0
1 3045 255 0
1 -61 3330 0
1 61 -3300 0
1 61 -76 0
1 -61 -60 0
1 76 3330 0
1 76 -3345 0
1 76 -3315 0
1 -91 -3330 0
1 -91 106 0
1 91 -3345 0
1 91 -3285 0
1 91 -90 0
1 106 -3300 0
1 -106 3240 0
1 106 -105 0
1 106 -107 0
1 -106 3345 0
1 106 3315 0
1 106 -3285 0
1 -106 3255 0
1 -3300 166 0
1 -3300 -3301 0
1 -3300 -136 0
1 3300 -106 0
1 -3300 3315 0
1 3315 3300 0
1 3315 -166 0
1 -3315 106 0
1 -3315 -76 0
1 -3315 3316 0
1 -3315 182 0
1 3315 121 0
1 3315 -91 0
1 -3315 -61 0
1 3330 -3331 0
1 3330 197 0
1 3330 167 0
1 -3330 182 0
1 3330 152 0
1 -3345 -3330 0
1 -3345 182 0
1 -3345 122 0
1 3345 -91 0
1 3345 -61 0
1 121 -136 0
1 -121 3315 0
1 121 -122 0
1 136 3300 0
1 -136 135 0
1 -136 -3150 0
1 -136 -3165 0
1 -151 3210 0
1 -151 -3180 0
1 -151 -3315 0
1 -151 -150 0
1 151 152 0
1 166 3300 0
1 166 -165 0
1 -166 3270 0
1 -166 3240 0
1 -166 -3150 0
1 -166 3315 0
1 166 3285 0
1 166 -151 0
1 -166 3165 0
1 -3240 -256 0
1 3240 3255 0
1 -3240 136 0
1 -3240 3241 0
1 -3240 -106 0
1 -3240 -241 0
1 -3240 -181 0
1 3240 121 0
1 3255 -166 0
1 3255 -106 0
1 3255 211 0
1 -3255 -181 0
1 3255 -151 0
1 3255 -91 0
1 -3270 227 0
1 3270 -106 0
1 3270 -241 0
1 -3270 212 0
1 -3270 -182 0
1 -3285 -256 0
1 -3285 166 0
1 3285 136 0
1 -3285 -212 0
1 3285 151 0
1 -3285 -121 0
1 -181 3240 0
1 181 3180 0
1 -181 -3090 0
1 181 180 0
1 181 -3225 0
1 -196 3105 0
1 196 -197 0
1 -196 -3240 0
1 196 -3150 0
1 -196 -3120 0
1 196 3090 0
1 196 -181 0
1 -196 3225 0
1 211 -3210 0
1 211 -3151 0
1 211 3090 0
1 211 -210 0
1 -211 -3255 0
1 211 -3166 0
1 -226 -3105 0
1 226 -227 0
1 226 3210 0
1 226 -3180 0
1 226 -3151 0
1 -226 -3121 0
1 -226 -211 0
1 -226 -3255 0
1 226 -3225 0
1 -226 -3195 0
1 -3180 226 0
1 -3180 196 0
1 -3180 -166 0
1 -3180 301 0
1 -3180 -211 0
1 3180 -3195 0
1 3180 316 0
1 3180 255 0
1 -3195 -226 0
1 3195 166 0
1 3195 -270 0
1 3195 -211 0
1 -3195 181 0
1 -3195 255 0
1 3210 -256 0
1 -3210 -196 0
1 -3210 3211 0
1 -3210 3225 0
1 3210 -316 0
1 3210 286 0
1 3225 -256 0
1 -3225 226 0
1 -3225 -196 0
1 -3225 166 0
1 3225 -3210 0
1 -3225 -286 0
1 -240 -3105 0
1 -240 3045 0
1 -240 -3180 0
1 -240 -3195 0
1 240 255 0
1 255 256 0
1 255 3136 0
1 -255 -3045 0
1 -255 -3180 0
1 -255 -3090 0
1 255 -3060 0
1 -255 -3030 0
1 255 3166 0
1 270 -3136 0
1 270 3106 0
1 -270 3076 0
1 270 -3091 0
1 -270 -3195 0
1 -270 -285 0
1 -270 -3166 0
1 285 3106 0
1 285 3151 0
1 285 -3121 0
1 285 3030 0
1 -285 -3166 0
1 -285 -286 0
1 -3121 -226 0
1 3121 -361 0
1 3121 300 0
1 -3121 -270 0
1 -3121 -240 0
1 -3121 315 0
1 -3121 285 0
1 -3121 255 0
1 3136 -330 0
1 3136 300 0
1 -3136 270 0
1 3136 -3121 0
1 -3136 -211 0
1 -3136 -3135 0
1 -3136 285 0
1 3136 -255 0
1 -3151 -270 0
1 -3151 3150 0
1 -3151 -3152 0
1 3151 376 0
1 3151 -346 0
1 -3151 316 0
1 -3166 -226 0
1 -3166 -361 0
1 3166 -301 0
1 3166 376 0
1 -300 3106 0
1 300 3045 0
1 -300 -301 0
1 300 3000 0
1 300 315 0
1 315 3015 0
1 315 3121 0
1 315 3091 0
1 -315 3000 0
1 -315 316 0
1 330 3136 0
1 330 -3106 0
1 -330 345 0
1 330 3016 0
1 -330 -331 0
1 -330 -3061 0
1 -330 -3031 0
1 -345 3016 0
1 345 -330 0
1 -345 -3091 0
1 -345 -3061 0
1 345 346 0
1 -3061 420 0
1 -3061 -390 0
1 -3061 360 0
1 -3061 330 0
1 -3061 315 0
1 -3061 285 0
1 3076 3077 0
1 -3076 -390 0
1 -3076 360 0
1 3076 -330 0
1 3076 -300 0
1 -3076 435 0
1 -3076 -375 0
1 -3076 -285 0
1 3091 3106 0
1 3091 -420 0
1 3091 -361 0
1 -3091 -300 0
1 3091 -270 0
1 3091 435 0
1 3091 -3092 0
1 -3091 406 0
1 -3091 376 0
1 3091 345 0
1 -3106 3105 0
1 3106 -3107 0
1 -3106 361 0
1 3106 -435 0
1 3106 -376 0
1 -3106 345 0
1 3106 -315 0
1 -360 -361 0
1 -360 -3031 0
1 -360 -3061 0
1 -375 -360 0
1 -375 3061 0
1 -390 -3046 0
1 390 3016 0
1 390 3001 0
1 -405 -3076 0
1 -405 -390 0
1 405 3046 0
1 -405 3061 0
1 405 -3031 0
1 -3001 -390 0
1 -3001 -360 0
1 -3001 3016 0
1 3001 495 0
1 3001 -375 0
1 3001 -345 0
1 3001 3002 0
1 -3016 480 0
1 3016 3015 0
1 -3016 -360 0
1 3016 -3017 0
1 3016 -330 0
1 3016 405 0
1 3016 3001 0
1 -3031 450 0
1 -3031 360 0
1 3031 465 0
1 3031 435 0
1 3031 -405 0
1 -3031 -3032 0
1 -3046 -480 0
1 -3046 -3045 0
1 3046 -435 0
1 3046 -405 0
1 -3046 375 0
1 -3046 345 0
1 62 -3525 0
1 -62 3495 0
1 62 -3510 0
1 -62 3480 0
1 77 -3525 0
1 77 -76 0
1 92 3465 0
1 -92 -107 0
1 92 -3435 0
1 -92 3450 0
1 92 3420 0
1 107 -3525 0
1 -107 3495 0
1 -107 -106 0
1 107 -3510 0
1 107 3420 0
1 107 3480 0
1 -3480 167 0
1 3480 -3495 0
1 3480 137 0
1 -3480 -107 0
1 -3480 -77 0
1 3480 122 0
1 -3480 62 0
1 3495 -3480 0
1 3495 3496 0
1 -3495 107 0
1 -3495 62 0
1 3510 -3511 0
1 3510 107 0
1 -3510 -62 0
1 3525 -3526 0
1 -3525 107 0
1 -3525 -77 0
1 -3525 3510 0
1 -3525 -92 0
1 -122 -3330 0
1 -122 -3495 0
1 -122 -121 0
1 122 -3450 0
1 137 3330 0
1 -137 3495 0
1 -137 -136 0
1 -137 3435 0
1 -137 -3450 0
1 137 -3480 0
1 -137 122 0
1 -137 -3420 0
1 -152 3330 0
1 -152 -3495 0
1 -152 3435 0
1 152 3375 0
1 152 3345 0
1 -152 151 0
1 -152 3450 0
1 167 -3360 0
1 -167 -3330 0
1 -167 3480 0
1 167 -3465 0
1 167 -3405 0
1 167 3375 0
1 -167 3345 0
1 -167 -152 0
1 167 -3450 0
1 -3420 167 0
1 3420 -137 0
1 -3420 152 0
1 -3420 122 0
1 3420 92 0
1 -3435 257 0
1 3435 -167 0
1 3435 -137 0
1 -3435 182 0
1 3435 3420 0
1 -3450 -167 0
1 -3450 107 0
1 -3450 -92 0
1 3465 -257 0
1 3465 167 0
1 3465 -137 0
1 3465 -3466 0
1 -3465 -122 0
1 -3465 -92 0
1 -182 -3330 0
1 182 197 0
1 182 -3270 0
1 182 -3435 0
1 182 -3405 0
1 -182 3315 0
1 182 3285 0
1 -182 181 0
1 182 -3420 0
1 182 -3390 0
1 -197 3360 0
1 -197 196 0
1 -197 -3375 0
1 197 -3345 0
1 -197 -3285 0
1 -197 182 0
1 -212 3360 0
1 212 -227 0
1 -212 3331 0
1 -212 3405 0
1 -212 -211 0
1 -212 -3316 0
1 212 -3420 0
1 -212 -3390 0
1 -227 -3360 0
1 227 226 0
1 227 3331 0
1 -227 3301 0
1 227 3405 0
1 -227 -3346 0
1 -227 212 0
1 227 -3316 0
1 -227 3390 0
1 -3360 -3361 0
1 3360 227 0
1 3360 -167 0
1 -3360 -3375 0
1 3360 -241 0
1 3360 -182 0
1 3360 -152 0
1 3360 317 0
1 -3375 3360 0
1 -3375 -182 0
1 3375 -152 0
1 -3390 -257 0
1 -3390 -227 0
1 3390 197 0
1 -3390 3391 0
1 -3390 167 0
1 3390 -272 0
1 -3390 212 0
1 3390 317 0
1 -3405 257 0
1 -3405 -197 0
1 3405 -302 0
1 -3405 3406 0
1 -3405 242 0
1 3405 -212 0
1 -3405 152 0
1 3405 317 0
1 -3405 3390 0
1 -3405 287 0
1 -241 -256 0
1 241 3360 0
1 -241 -3331 0
1 -241 -3301 0
1 -241 3270 0
1 -241 3240 0
1 -241 3375 0
1 -241 -240 0
1 -241 -242 0
1 -241 -3285 0
1 -241 -3255 0
1 256 -257 0
1 -256 3331 0
1 -256 3301 0
1 -256 -3270 0
1 -256 3210 0
1 -256 -3375 0
1 256 -255 0
1 -271 -3360 0
1 271 -3210 0
1 -271 -272 0
1 271 3346 0
1 -271 3316 0
1 271 -3286 0
1 271 -3256 0
1 271 -3225 0
1 286 3360 0
1 -286 3331 0
1 286 3301 0
1 -286 -3210 0
1 -286 -3375 0
1 286 3286 0
1 -286 285 0
1 3301 256 0
1 -3301 -3302 0
1 -3301 -362 0
1 3301 -271 0
1 -3301 -212 0
1 3301 -3316 0
1 -3301 -377 0
1 -3316 -256 0
1 3316 227 0
1 -3316 3301 0
1 3316 -362 0
1 3316 -331 0
1 -3316 301 0
1 3316 -3315 0
1 -3316 3317 0
1 3316 -377 0
1 -3316 -346 0
1 -3316 316 0
1 3316 286 0
1 -3331 227 0
1 3331 3332 0
1 3331 362 0
1 -3331 -302 0
1 3331 -3346 0
1 -3331 -212 0
1 3331 -377 0
1 -3331 347 0
1 3331 286 0
1 3346 -3331 0
1 -3346 302 0
1 3346 3347 0
1 -3346 -212 0
1 -3346 377 0
1 -3346 347 0
1 3346 317 0
1 -3346 -286 0
1 -301 -3210 0
1 301 300 0
1 301 -3180 0
1 301 3316 0
1 -301 316 0
1 301 3166 0
1 -316 3271 0
1 316 3241 0
1 -316 3151 0
1 316 3316 0
1 316 -3286 0
1 -316 -3256 0
1 316 -3225 0
1 -316 -315 0
1 -316 317 0
1 331 3271 0
1 -331 -330 0
1 -331 -332 0
1 331 3286 0
1 -331 3256 0
1 -331 -346 0
1 -346 3271 0
1 -346 -3181 0
1 -346 3151 0
1 346 -3286 0
1 346 3226 0
1 346 -347 0
1 -346 -3196 0
1 346 -3166 0
1 3241 -3256 0
1 3241 421 0
1 3241 -331 0
1 3241 -436 0
1 -3241 -376 0
1 -3241 -286 0
1 3256 -421 0
1 -3256 -361 0
1 3256 3241 0
1 3256 -331 0
1 3256 -271 0
1 -3256 -436 0
1 3256 406 0
1 3256 376 0
1 -3256 316 0
1 3271 421 0
1 -3271 3270 0
1 3271 362 0
1 3271 -271 0
1 3271 -436 0
1 3271 3286 0
1 -3271 -346 0
1 -3271 -316 0
1 3271 286 0
1 -3286 -421 0
1 3286 -3287 0
1 -3286 3271 0
1 -3286 -392 0
1 3286 -436 0
1 -3286 -3285 0
1 -3286 -407 0
1 3286 377 0
1 -3286 286 0
1 -361 3136 0
1 -361 -360 0
1 361 362 0
1 -361 3211 0
1 -361 -3121 0
1 361 -376 0
1 376 3106 0
1 -376 -361 0
1 376 -3181 0
1 376 -3121 0
1 376 3091 0
1 -376 -3226 0
1 376 -3196 0
1 -376 -3166 0
1 -391 -3106 0
1 -391 390 0
1 -391 3241 0
1 -391 3211 0
1 -391 3152 0
1 391 -3091 0
1 -391 3256 0
1 -391 -3196 0
1 406 3137 0
1 -406 -3106 0
1 -406 -391 0
1 -406 3241 0
1 -406 -3181 0
1 406 3152 0
1 -406 3091 0
1 -406 -407 0
1 406 -3167 0
1 3181 -420 0
1 -3181 -391 0
1 -3181 361 0
1 -3181 3180 0
1 -3181 -3182 0
1 -3181 496 0
1 -3181 465 0
1 -3181 376 0
1 3196 -481 0
1 -3196 -450 0
1 3196 361 0
1 -3196 -331 0
1 -3196 -3181 0
1 -3196 -496 0
1 -3196 435 0
1 3196 -3197 0
1 -3211 -481 0
1 -3211 451 0
1 3211 -421 0
1 3211 3226 0
1 -3211 331 0
1 3211 -376 0
1 -3226 421 0
1 3226 391 0
1 -3226 -361 0
1 -3226 -331 0
1 3226 -496 0
1 3226 376 0
1 -3226 -346 0
1 -3226 -3227 0
1 -420 -3137 0
1 -420 -3106 0
1 420 -3076 0
1 -420 -3046 0
1 420 3181 0
1 420 435 0
1 420 -3061 0
1 420 3031 0
1 -420 3196 0
1 435 3046 0
1 435 -3152 0
1 -435 3122 0
1 435 3167 0
1 -450 3107 0
1 450 3046 0
1 -450 3181 0
1 -450 -465 0
1 -450 3062 0
1 450 -3196 0
1 450 -3167 0
1 -465 450 0
1 465 -3107 0
1 -465 -3046 0
1 465 466 0
1 -465 3092 0
1 -465 3031 0
1 465 -3196 0
1 465 3167 0
1 -3122 -480 0
1 3122 3137 0
1 3122 -391 0
1 -3122 -495 0
1 -3122 465 0
1 -3122 -3121 0
1 -3122 -435 0
1 -3122 406 0
1 3122 541 0
1 -3122 510 0
1 3137 -480 0
1 -3137 -3136 0
1 -3137 -391 0
1 3137 465 0
1 3137 541 0
1 3152 -481 0
1 -3152 450 0
1 -3152 420 0
1 -3152 -556 0
1 3152 -3151 0
1 -3152 496 0
1 3152 -435 0
1 -3152 -406 0
1 3152 3167 0
1 -3167 481 0
1 3167 496 0
1 -3167 435 0
1 -3167 -406 0
1 -3167 -541 0
1 -3167 -511 0
1 480 -3122 0
1 -480 3031 0
1 495 480 0
1 -495 3107 0
1 495 496 0
1 -495 -3122 0
1 495 3031 0
1 495 3001 0
1 -510 -3137 0
1 510 -3107 0
1 510 3047 0
1 510 525 0
1 510 -3122 0
1 510 3092 0
1 510 3062 0
1 -510 3002 0
1 -510 -511 0
1 525 -3137 0
1 525 -3107 0
1 -525 3077 0
1 525 -3047 0
1 525 3017 0
1 -525 -3092 0
1 525 3062 0
1 525 3032 0
1 3062 -450 0
1 -3062 -525 0
1 3062 495 0
1 -3062 570 0
1 3062 510 0
1 3077 -480 0
1 -3077 585 0
1 -3077 -570 0
1 3077 -540 0
1 -3077 510 0
1 -3092 480 0
1 -3092 450 0
1 3092 3107 0
1 -3092 556 0
1 -3092 525 0
1 3092 -571 0
1 -3092 -541 0
1 3107 586 0
1 3107 -556 0
1 -3107 -525 0
1 -3107 -495 0
1 -3107 -465 0
1 -3107 -571 0
1 -540 3047 0
1 -540 -3002 0
1 -555 556 0
1 -555 -3062 0
1 555 3002 0
1 570 3077 0
1 570 -585 0
1 -570 -3062 0
1 570 -3002 0
1 -585 3002 0
1 -585 3077 0
1 -585 3047 0
1 -585 -3032 0
1 3002 585 0
1 -3002 3017 0
1 -3002 3001 0
1 3017 3002 0
1 -3017 3016 0
1 -3017 -570 0
1 -3017 540 0
1 -3017 510 0
1 3032 3047 0
1 3032 -585 0
1 3032 -525 0
1 -3032 -570 0
1 3047 -525 0
1 -3047 -3032 0
1 3047 540 0
1 -3047 510 0
1 -242 -257 0
1 242 3526 0
1 -242 3405 0
1 -242 241 0
1 -242 3511 0
1 242 -3481 0
1 257 3465 0
1 257 -3405 0
1 257 -3511 0
1 257 -3481 0
1 257 3450 0
1 -257 3420 0
1 272 -3496 0
1 -272 -3436 0
1 272 -3511 0
1 272 3451 0
1 -272 -3421 0
1 272 -3390 0
1 -287 3466 0
1 287 -3436 0
1 287 3405 0
1 287 -3511 0
1 287 -3421 0
1 -287 286 0
1 -3481 -257 0
1 3481 332 0
1 -3481 272 0
1 3481 3480 0
1 3481 347 0
1 3481 -317 0
1 3496 -242 0
1 3496 -347 0
1 -3511 3526 0
1 -3511 287 0
1 3526 -257 0
1 3526 -3525 0
1 -3526 3527 0
1 -3526 3511 0
1 -3526 -287 0
1 302 -3360 0
1 302 -3331 0
1 302 3496 0
1 302 3436 0
1 302 301 0
1 302 -3375 0
1 -302 3346 0
1 -302 -3481 0
1 302 3451 0
1 302 -3421 0
1 -302 -317 0
1 -317 3496 0
1 -317 3466 0
1 317 -3436 0
1 -317 3346 0
1 317 -3481 0
1 317 -3451 0
1 -317 316 0
1 332 -3331 0
1 332 -3376 0
1 -332 3346 0
1 332 -3451 0
1 -332 -347 0
1 347 3361 0
1 -347 -3331 0
1 347 3496 0
1 347 3466 0
1 347 332 0
1 -347 -3376 0
1 347 -3346 0
1 347 -3481 0
1 -347 3451 0
1 -3421 392 0
1 -3421 362 0
1 3421 437 0
1 3421 -407 0
1 3421 -347 0
1 3421 -317 0
1 3421 -287 0
1 3436 422 0
1 -3436 392 0
1 -3436 -362 0
1 3436 -3437 0
1 -3436 -302 0
1 3436 -272 0
1 3436 437 0
1 -3436 317 0
1 3451 -422 0
1 -3451 3466 0
1 -3451 -332 0
1 3451 302 0
1 3451 -3450 0
1 3451 272 0
1 -3451 -437 0
1 -3451 347 0
1 3451 -3452 0
1 -3466 422 0
1 -3466 -332 0
1 3466 302 0
1 -3466 272 0
1 -3466 -3451 0
1 3466 -347 0
1 -362 3301 0
1 -362 -3346 0
1 362 3286 0
1 -362 -3421 0
1 -362 3391 0
1 377 3361 0
1 377 3331 0
1 377 3301 0
1 377 -362 0
1 -377 -3406 0
1 377 3376 0
1 377 3346 0
1 377 -3286 0
1 -377 3391 0
1 392 -3361 0
1 392 3332 0
1 392 3302 0
1 -392 3271 0
1 -392 -391 0
1 392 -3406 0
1 -392 3317 0
1 392 407 0
1 -392 3421 0
1 -407 -3361 0
1 -407 -3302 0
1 407 392 0
1 407 -3376 0
1 407 3286 0
1 3361 3360 0
1 -3361 -482 0
1 3361 -392 0
1 -3361 497 0
1 -3361 466 0
1 3361 -407 0
1 3361 -377 0
1 3361 -347 0
1 -3376 -3361 0
1 -3376 362 0
1 -3376 3375 0
1 -3376 -466 0
1 3376 377 0
1 3391 -3392 0
1 -3391 452 0
1 -3391 362 0
1 -3391 -332 0
1 3391 -497 0
1 -3391 467 0
1 -3391 -407 0
1 3391 377 0
1 -3391 -347 0
1 -3391 -3390 0
1 3406 422 0
1 -3406 -392 0
1 3406 362 0
1 -3406 -332 0
1 3406 -497 0
1 -3406 467 0
1 3406 -407 0
1 -3406 377 0
1 -3406 -347 0
1 -3406 3391 0
1 -421 -420 0
1 421 422 0
1 421 3302 0
1 421 -3241 0
1 -421 -3317 0
1 -421 -3286 0
1 -421 -3256 0
1 421 -3226 0
1 -436 3302 0
1 -436 3241 0
1 436 3211 0
1 -436 -437 0
1 436 3286 0
1 -436 -3226 0
1 -451 -3302 0
1 -451 3242 0
1 451 3211 0
1 451 -3376 0
1 -451 -466 0
1 -451 -3317 0
1 451 -3287 0
1 451 -3226 0
1 466 -3361 0
1 466 3332 0
1 -466 -3272 0
1 -466 -3242 0
1 -466 3376 0
1 466 -465 0
1 466 467 0
1 -466 3347 0
1 -3302 451 0
1 -3302 3301 0
1 3302 -392 0
1 -3302 -526 0
1 -3302 466 0
1 -3302 436 0
1 -3302 3317 0
1 3302 407 0
1 3302 511 0
1 -3317 -481 0
1 3317 451 0
1 3317 -392 0
1 -3317 -526 0
1 3317 407 0
1 3332 -512 0
1 -3332 482 0
1 3332 -451 0
1 -3332 -421 0
1 -3332 -392 0
1 -3332 -527 0
1 -3332 497 0
1 3332 -466 0
1 3332 -436 0
1 -3332 407 0
1 -3347 -512 0
1 -3347 482 0
1 -3347 -451 0
1 3347 421 0
1 -3347 527 0
1 3347 497 0
1 -3347 -466 0
1 -481 482 0
1 -481 -3211 0
1 -481 -3152 0
1 481 3196 0
1 -481 -3167 0
1 496 3272 0
1 -496 -3211 0
1 496 495 0
1 496 -3152 0
1 -496 497 0
1 496 3317 0
1 496 -3257 0
1 496 3167 0
1 511 3302 0
1 -511 3242 0
1 511 -3212 0
1 511 -3287 0
1 511 3227 0
1 511 -3197 0
1 -511 510 0
1 -511 3167 0
1 526 -3302 0
1 -526 -511 0
1 -526 3182 0
1 -526 527 0
1 -526 3317 0
1 526 -3287 0
1 -526 3167 0
1 -3242 451 0
1 3242 -3257 0
1 3242 -3241 0
1 3242 -586 0
1 -3242 -556 0
1 -3242 526 0
1 -3242 541 0
1 3242 -511 0
1 3257 451 0
1 3257 586 0
1 -3257 3242 0
1 3257 526 0
1 -3257 -571 0
1 -3257 -541 0
1 -3272 451 0
1 -3272 -3271 0
1 3272 -587 0
1 3272 -557 0
1 -3272 496 0
1 3287 -481 0
1 -3287 466 0
1 3287 -511 0
1 -541 -3137 0
1 -541 -3242 0
1 541 3182 0
1 -541 3152 0
1 541 3227 0
1 541 -3167 0
1 -556 -3137 0
1 556 -3107 0
1 556 557 0
1 -556 -3182 0
1 -556 3122 0
1 -556 -3197 0
1 -556 3257 0
1 556 541 0
1 -556 3167 0
1 -571 -586 0
1 -571 3182 0
1 571 3227 0
1 571 -572 0
1 -571 3197 0
1 -586 3212 0
1 -586 -3227 0
1 -586 -3182 0
1 -586 3092 0
1 -586 -3257 0
1 -586 -3197 0
1 -3182 586 0
1 -3182 556 0
1 -3182 -3181 0
1 3182 3197 0
1 3197 -3196 0
1 3197 541 0
1 -3212 3211 0
1 3212 3227 0
1 3212 -541 0
1 3227 586 0
1 3227 556 0
1 -3227 -526 0
1 3227 -571 0
1 3227 541 0
1 -422 -421 0
1 -422 3527 0
1 422 -3497 0
1 422 3466 0
1 -422 3406 0
1 -422 -437 0
1 -422 3512 0
1 422 3451 0
1 437 3466 0
1 437 3436 0
1 -437 -436 0
1 -437 -3451 0
1 452 -451 0
1 452 3527 0
1 452 3467 0
1 452 3512 0
1 452 -3452 0
1 -452 3422 0
1 467 -452 0
1 467 -3527 0
1 -467 -3437 0
1 -467 -3406 0
1 -467 -466 0
1 -467 -3482 0
1 467 3452 0
1 3482 452 0
1 3482 -527 0
1 -3482 -497 0
1 -3482 437 0
1 3497 482 0
1 -3497 452 0
1 -3497 422 0
1 -3497 -3496 0
1 -3497 497 0
1 -3497 -437 0
1 -3512 452 0
1 3512 -422 0
1 3512 -3527 0
1 -3527 -3512 0
1 3527 467 0
1 3527 -437 0
1 482 3467 0
1 482 3406 0
1 -482 -497 0
1 -482 -3482 0
1 -482 3422 0
1 -482 3391 0
1 -497 3437 0
1 497 496 0
1 497 -3376 0
1 -497 3452 0
1 497 3422 0
1 512 3392 0
1 512 -3362 0
1 -512 -3437 0
1 -512 -3407 0
1 -512 -3347 0
1 -512 3452 0
1 512 -3422 0
1 527 -512 0
1 -527 -3392 0
1 527 -3362 0
1 -527 3467 0
1 -527 526 0
1 -527 -3377 0
1 527 -3452 0
1 -527 3422 0
1 3422 -512 0
1 -3422 -482 0
1 -3422 -527 0
1 -3422 572 0
1 -3437 -512 0
1 3437 587 0
1 -3437 497 0
1 -3437 -467 0
1 -3437 572 0
1 -3437 -3422 0
1 -3467 482 0
1 3467 -497 0
1 3467 3452 0
1 -557 3392 0
1 -557 -3362 0
1 -557 3302 0
1 -557 -3437 0
1 -557 3407 0
1 -557 3317 0
1 -557 -3422 0
1 -572 3287 0
1 572 -3422 0
1 -587 -3392 0
1 -587 -3362 0
1 -587 3272 0
1 -587 -586 0
1 587 -3377 0
1 587 3287 0
1 -587 -572 0
1 587 -3422 0
1 -3362 512 0
1 -3362 -3361 0
1 -3362 -587 0
1 3362 -3377 0
1 -3362 572 0
1 -3377 512 0
1 3377 3362 0
1 3392 557 0
1 -3392 527 0
1 3392 3407 0
1 3392 572 0
1 3407 -512 0
1 -3407 3406 0
1 -3407 -572 0
